(set-info :smt-lib-version 2.6)
(set-logic QF_NIA)
(set-info :source |
Generated by: Cristina Borralleras, Daniel Larraz, Albert Oliveras, Enric Rodriguez-Carbonell, Albert Rubio
Generated on: 2017-04-27
Generator: VeryMax
Application: Termination proving
Target solver: barcelogic
|)
(set-info :license "https://creativecommons.org/licenses/by/4.0/")
(set-info :category "industrial")
(set-info :status sat)
(declare-fun Nl44c5^01 () Int)
(declare-fun Nl44i6^01 () Int)
(declare-fun Nl159c5^01 () Int)
(declare-fun Nl159i6^01 () Int)
(declare-fun lam0n0 () Int)
(declare-fun lam0n1 () Int)
(declare-fun lam0n2 () Int)
(declare-fun Nl44CT1 () Int)
(declare-fun lam1n0 () Int)
(declare-fun lam1n1 () Int)
(declare-fun lam1n2 () Int)
(declare-fun Nl159CT1 () Int)
(declare-fun lam2n1 () Int)
(declare-fun lam2n0 () Int)
(declare-fun lam3n1 () Int)
(declare-fun lam3n0 () Int)
(declare-fun lam4n1 () Int)
(declare-fun lam4n0 () Int)
(declare-fun lam5n1 () Int)
(declare-fun lam5n0 () Int)
(declare-fun lam6n1 () Int)
(declare-fun lam6n0 () Int)
(declare-fun lam7n1 () Int)
(declare-fun lam7n0 () Int)
(declare-fun lam8n1 () Int)
(declare-fun lam8n0 () Int)
(declare-fun lam9n1 () Int)
(declare-fun lam9n0 () Int)
(declare-fun lam10n1 () Int)
(declare-fun lam10n0 () Int)
(declare-fun lam11n1 () Int)
(declare-fun lam11n0 () Int)
(declare-fun lam12n0 () Int)
(declare-fun lam12n1 () Int)
(declare-fun lam13n0 () Int)
(declare-fun lam13n1 () Int)
(declare-fun lam14n1 () Int)
(declare-fun lam14n0 () Int)
(declare-fun lam15n1 () Int)
(declare-fun lam15n0 () Int)
(declare-fun lam16n1 () Int)
(declare-fun lam16n0 () Int)
(declare-fun lam17n1 () Int)
(declare-fun lam17n0 () Int)
(declare-fun lam18n1 () Int)
(declare-fun lam18n0 () Int)
(declare-fun lam19n1 () Int)
(declare-fun lam19n0 () Int)
(declare-fun lam20n1 () Int)
(declare-fun lam20n0 () Int)
(declare-fun lam21n1 () Int)
(declare-fun lam21n0 () Int)
(declare-fun lam22n1 () Int)
(declare-fun lam22n0 () Int)
(declare-fun lam23n1 () Int)
(declare-fun lam23n0 () Int)
(declare-fun lam24n0 () Int)
(declare-fun lam24n1 () Int)
(declare-fun lam24n2 () Int)
(assert ( and ( <= ( - 1 ) Nl44c5^01 ) ( <= Nl44c5^01 1 ) ( <= ( - 1 ) Nl44i6^01 ) ( <= Nl44i6^01 1 ) ( <= ( - 1 ) Nl159c5^01 ) ( <= Nl159c5^01 1 ) ( <= ( - 1 ) Nl159i6^01 ) ( <= Nl159i6^01 1 ) ))
(assert ( or ( and ( >= lam0n0 0 ) ( >= lam0n1 0 ) ( >= lam0n2 0 ) ( > ( + ( * 5 lam0n0 ) ( * ( - 9 ) lam0n1 ) ( * Nl44CT1 lam0n2 ) ( - 1 ) ) 0 ) ( = ( * Nl44c5^01 lam0n2 ) 0 ) ( = ( + ( * ( - 1 ) lam0n0 ) ( * 1 lam0n1 ) ( * Nl44i6^01 lam0n2 ) ) 0 ) ) ( and ( >= lam1n0 0 ) ( >= lam1n1 0 ) ( >= lam1n2 0 ) ( > ( + ( * 5 lam1n0 ) ( * ( - 9 ) lam1n1 ) ( * Nl44CT1 lam1n2 ) ( - 1 Nl159CT1 ) ) 0 ) ( = ( + ( * Nl44c5^01 lam1n2 ) ( - ( + 0 Nl159c5^01 ) ) ) 0 ) ( = ( + ( * ( - 1 ) lam1n0 ) ( * 1 lam1n1 ) ( * Nl44i6^01 lam1n2 ) ( - ( + 0 Nl159i6^01 ) ) ) 0 ) ) ))
(assert ( or ( and ( >= lam2n1 0 ) ( > ( + ( * ( - 4 ) lam2n0 ) ( * Nl44CT1 lam2n1 ) ( - 1 ) ) 0 ) ( = ( * Nl44c5^01 lam2n1 ) 0 ) ( = ( + ( * 1 lam2n0 ) ( * Nl44i6^01 lam2n1 ) ) 0 ) ) ( and ( >= lam3n1 0 ) ( > ( + ( * ( - 4 ) lam3n0 ) ( * Nl44CT1 lam3n1 ) ( - 1 ( + ( + Nl44CT1 ( * Nl44c5^01 1 ) ) ( * Nl44i6^01 1 ) ) ) ) 0 ) ( = ( + ( * Nl44c5^01 lam3n1 ) ( - ( + 0 ( * Nl44c5^01 1 ) ) ) ) 0 ) ( = ( + ( * 1 lam3n0 ) ( * Nl44i6^01 lam3n1 ) ( - ( + 0 ( * Nl44i6^01 1 ) ) ) ) 0 ) ) ))
(assert ( or ( and ( >= lam4n1 0 ) ( > ( + ( * ( - 3 ) lam4n0 ) ( * Nl44CT1 lam4n1 ) ( - 1 ) ) 0 ) ( = ( * Nl44c5^01 lam4n1 ) 0 ) ( = ( + ( * 1 lam4n0 ) ( * Nl44i6^01 lam4n1 ) ) 0 ) ) ( and ( >= lam5n1 0 ) ( > ( + ( * ( - 3 ) lam5n0 ) ( * Nl44CT1 lam5n1 ) ( - 1 ( + ( + Nl44CT1 ( * Nl44c5^01 1 ) ) ( * Nl44i6^01 1 ) ) ) ) 0 ) ( = ( + ( * Nl44c5^01 lam5n1 ) ( - ( + 0 ( * Nl44c5^01 1 ) ) ) ) 0 ) ( = ( + ( * 1 lam5n0 ) ( * Nl44i6^01 lam5n1 ) ( - ( + 0 ( * Nl44i6^01 1 ) ) ) ) 0 ) ) ))
(assert ( or ( and ( >= lam6n1 0 ) ( > ( + ( * ( - 2 ) lam6n0 ) ( * Nl44CT1 lam6n1 ) ( - 1 ) ) 0 ) ( = ( * Nl44c5^01 lam6n1 ) 0 ) ( = ( + ( * 1 lam6n0 ) ( * Nl44i6^01 lam6n1 ) ) 0 ) ) ( and ( >= lam7n1 0 ) ( > ( + ( * ( - 2 ) lam7n0 ) ( * Nl44CT1 lam7n1 ) ( - 1 ( + ( + Nl44CT1 ( * Nl44c5^01 1 ) ) ( * Nl44i6^01 1 ) ) ) ) 0 ) ( = ( + ( * Nl44c5^01 lam7n1 ) ( - ( + 0 ( * Nl44c5^01 1 ) ) ) ) 0 ) ( = ( + ( * 1 lam7n0 ) ( * Nl44i6^01 lam7n1 ) ( - ( + 0 ( * Nl44i6^01 1 ) ) ) ) 0 ) ) ))
(assert ( or ( and ( >= lam8n1 0 ) ( > ( + ( * ( - 1 ) lam8n0 ) ( * Nl44CT1 lam8n1 ) ( - 1 ) ) 0 ) ( = ( * Nl44c5^01 lam8n1 ) 0 ) ( = ( + ( * 1 lam8n0 ) ( * Nl44i6^01 lam8n1 ) ) 0 ) ) ( and ( >= lam9n1 0 ) ( > ( + ( * ( - 1 ) lam9n0 ) ( * Nl44CT1 lam9n1 ) ( - 1 ( + ( + Nl44CT1 ( * Nl44c5^01 1 ) ) ( * Nl44i6^01 1 ) ) ) ) 0 ) ( = ( + ( * Nl44c5^01 lam9n1 ) ( - ( + 0 ( * Nl44c5^01 1 ) ) ) ) 0 ) ( = ( + ( * 1 lam9n0 ) ( * Nl44i6^01 lam9n1 ) ( - ( + 0 ( * Nl44i6^01 1 ) ) ) ) 0 ) ) ))
(assert ( or ( and ( >= lam10n1 0 ) ( > ( + ( * Nl44CT1 lam10n1 ) ( - 1 ) ) 0 ) ( = ( * Nl44c5^01 lam10n1 ) 0 ) ( = ( + ( * 1 lam10n0 ) ( * Nl44i6^01 lam10n1 ) ) 0 ) ) ( and ( >= lam11n1 0 ) ( > ( + ( * Nl44CT1 lam11n1 ) ( - 1 ( + ( + Nl44CT1 ( * Nl44c5^01 1 ) ) ( * Nl44i6^01 1 ) ) ) ) 0 ) ( = ( + ( * Nl44c5^01 lam11n1 ) ( - ( + 0 ( * Nl44c5^01 1 ) ) ) ) 0 ) ( = ( + ( * 1 lam11n0 ) ( * Nl44i6^01 lam11n1 ) ( - ( + 0 ( * Nl44i6^01 1 ) ) ) ) 0 ) ) ))
(assert ( or ( and ( >= lam12n0 0 ) ( >= lam12n1 0 ) ( > ( + ( * 10 lam12n0 ) ( * Nl159CT1 lam12n1 ) ( - 1 ) ) 0 ) ( = ( * Nl159c5^01 lam12n1 ) 0 ) ( = ( + ( * ( - 1 ) lam12n0 ) ( * Nl159i6^01 lam12n1 ) ) 0 ) ) ( and ( >= lam13n0 0 ) ( >= lam13n1 0 ) ( > ( + ( * 10 lam13n0 ) ( * Nl159CT1 lam13n1 ) ( - 1 ( + ( + Nl44CT1 ( * Nl44c5^01 ( - 1 ) ) ) ( * Nl44i6^01 1 ) ) ) ) 0 ) ( = ( + ( * Nl159c5^01 lam13n1 ) ( - ( + 0 ( * Nl44c5^01 1 ) ) ) ) 0 ) ( = ( + ( * ( - 1 ) lam13n0 ) ( * Nl159i6^01 lam13n1 ) ( - ( + 0 ( * Nl44i6^01 1 ) ) ) ) 0 ) ) ))
(assert ( or ( and ( >= lam14n1 0 ) ( > ( + ( * ( - 9 ) lam14n0 ) ( * Nl159CT1 lam14n1 ) ( - 1 ) ) 0 ) ( = ( * Nl159c5^01 lam14n1 ) 0 ) ( = ( + ( * 1 lam14n0 ) ( * Nl159i6^01 lam14n1 ) ) 0 ) ) ( and ( >= lam15n1 0 ) ( > ( + ( * ( - 9 ) lam15n0 ) ( * Nl159CT1 lam15n1 ) ( - 1 ( + ( + Nl44CT1 ( * Nl44c5^01 1 ) ) ( * Nl44i6^01 1 ) ) ) ) 0 ) ( = ( + ( * Nl159c5^01 lam15n1 ) ( - ( + 0 ( * Nl44c5^01 1 ) ) ) ) 0 ) ( = ( + ( * 1 lam15n0 ) ( * Nl159i6^01 lam15n1 ) ( - ( + 0 ( * Nl44i6^01 1 ) ) ) ) 0 ) ) ))
(assert ( or ( and ( >= lam16n1 0 ) ( > ( + ( * ( - 8 ) lam16n0 ) ( * Nl159CT1 lam16n1 ) ( - 1 ) ) 0 ) ( = ( * Nl159c5^01 lam16n1 ) 0 ) ( = ( + ( * 1 lam16n0 ) ( * Nl159i6^01 lam16n1 ) ) 0 ) ) ( and ( >= lam17n1 0 ) ( > ( + ( * ( - 8 ) lam17n0 ) ( * Nl159CT1 lam17n1 ) ( - 1 ( + ( + Nl44CT1 ( * Nl44c5^01 1 ) ) ( * Nl44i6^01 1 ) ) ) ) 0 ) ( = ( + ( * Nl159c5^01 lam17n1 ) ( - ( + 0 ( * Nl44c5^01 1 ) ) ) ) 0 ) ( = ( + ( * 1 lam17n0 ) ( * Nl159i6^01 lam17n1 ) ( - ( + 0 ( * Nl44i6^01 1 ) ) ) ) 0 ) ) ))
(assert ( or ( and ( >= lam18n1 0 ) ( > ( + ( * ( - 7 ) lam18n0 ) ( * Nl159CT1 lam18n1 ) ( - 1 ) ) 0 ) ( = ( * Nl159c5^01 lam18n1 ) 0 ) ( = ( + ( * 1 lam18n0 ) ( * Nl159i6^01 lam18n1 ) ) 0 ) ) ( and ( >= lam19n1 0 ) ( > ( + ( * ( - 7 ) lam19n0 ) ( * Nl159CT1 lam19n1 ) ( - 1 ( + ( + Nl44CT1 ( * Nl44c5^01 1 ) ) ( * Nl44i6^01 1 ) ) ) ) 0 ) ( = ( + ( * Nl159c5^01 lam19n1 ) ( - ( + 0 ( * Nl44c5^01 1 ) ) ) ) 0 ) ( = ( + ( * 1 lam19n0 ) ( * Nl159i6^01 lam19n1 ) ( - ( + 0 ( * Nl44i6^01 1 ) ) ) ) 0 ) ) ))
(assert ( or ( and ( >= lam20n1 0 ) ( > ( + ( * ( - 6 ) lam20n0 ) ( * Nl159CT1 lam20n1 ) ( - 1 ) ) 0 ) ( = ( * Nl159c5^01 lam20n1 ) 0 ) ( = ( + ( * 1 lam20n0 ) ( * Nl159i6^01 lam20n1 ) ) 0 ) ) ( and ( >= lam21n1 0 ) ( > ( + ( * ( - 6 ) lam21n0 ) ( * Nl159CT1 lam21n1 ) ( - 1 ( + ( + Nl44CT1 ( * Nl44c5^01 1 ) ) ( * Nl44i6^01 1 ) ) ) ) 0 ) ( = ( + ( * Nl159c5^01 lam21n1 ) ( - ( + 0 ( * Nl44c5^01 1 ) ) ) ) 0 ) ( = ( + ( * 1 lam21n0 ) ( * Nl159i6^01 lam21n1 ) ( - ( + 0 ( * Nl44i6^01 1 ) ) ) ) 0 ) ) ))
(assert ( or ( and ( >= lam22n1 0 ) ( > ( + ( * ( - 5 ) lam22n0 ) ( * Nl159CT1 lam22n1 ) ( - 1 ) ) 0 ) ( = ( * Nl159c5^01 lam22n1 ) 0 ) ( = ( + ( * 1 lam22n0 ) ( * Nl159i6^01 lam22n1 ) ) 0 ) ) ( and ( >= lam23n1 0 ) ( > ( + ( * ( - 5 ) lam23n0 ) ( * Nl159CT1 lam23n1 ) ( - 1 ( + ( + Nl44CT1 ( * Nl44c5^01 1 ) ) ( * Nl44i6^01 1 ) ) ) ) 0 ) ( = ( + ( * Nl159c5^01 lam23n1 ) ( - ( + 0 ( * Nl44c5^01 1 ) ) ) ) 0 ) ( = ( + ( * 1 lam23n0 ) ( * Nl159i6^01 lam23n1 ) ( - ( + 0 ( * Nl44i6^01 1 ) ) ) ) 0 ) ) ))
(assert ( and ( > ( - 1 Nl44CT1 ) 0 ) ( = ( + ( * 1 lam24n0 ) ( - ( + 0 Nl44c5^01 ) ) ) 0 ) ( = ( + ( * 1 lam24n1 ) ( - ( + 0 Nl44i6^01 ) ) ) 0 ) ( = ( + ( * ( - 1 ) lam24n0 ) ( * 1 lam24n2 ) ) 0 ) ))
(assert ( or ( and ( >= lam0n0 0 ) ( >= lam0n1 0 ) ( >= lam0n2 0 ) ( > ( + ( * 5 lam0n0 ) ( * ( - 9 ) lam0n1 ) ( * Nl44CT1 lam0n2 ) ( - 1 ) ) 0 ) ( = ( * Nl44c5^01 lam0n2 ) 0 ) ( = ( + ( * ( - 1 ) lam0n0 ) ( * 1 lam0n1 ) ( * Nl44i6^01 lam0n2 ) ) 0 ) ) ( and ( >= lam2n1 0 ) ( > ( + ( * ( - 4 ) lam2n0 ) ( * Nl44CT1 lam2n1 ) ( - 1 ) ) 0 ) ( = ( * Nl44c5^01 lam2n1 ) 0 ) ( = ( + ( * 1 lam2n0 ) ( * Nl44i6^01 lam2n1 ) ) 0 ) ) ( and ( >= lam4n1 0 ) ( > ( + ( * ( - 3 ) lam4n0 ) ( * Nl44CT1 lam4n1 ) ( - 1 ) ) 0 ) ( = ( * Nl44c5^01 lam4n1 ) 0 ) ( = ( + ( * 1 lam4n0 ) ( * Nl44i6^01 lam4n1 ) ) 0 ) ) ( and ( >= lam6n1 0 ) ( > ( + ( * ( - 2 ) lam6n0 ) ( * Nl44CT1 lam6n1 ) ( - 1 ) ) 0 ) ( = ( * Nl44c5^01 lam6n1 ) 0 ) ( = ( + ( * 1 lam6n0 ) ( * Nl44i6^01 lam6n1 ) ) 0 ) ) ( and ( >= lam8n1 0 ) ( > ( + ( * ( - 1 ) lam8n0 ) ( * Nl44CT1 lam8n1 ) ( - 1 ) ) 0 ) ( = ( * Nl44c5^01 lam8n1 ) 0 ) ( = ( + ( * 1 lam8n0 ) ( * Nl44i6^01 lam8n1 ) ) 0 ) ) ( and ( >= lam10n1 0 ) ( > ( + ( * Nl44CT1 lam10n1 ) ( - 1 ) ) 0 ) ( = ( * Nl44c5^01 lam10n1 ) 0 ) ( = ( + ( * 1 lam10n0 ) ( * Nl44i6^01 lam10n1 ) ) 0 ) ) ( and ( >= lam12n0 0 ) ( >= lam12n1 0 ) ( > ( + ( * 10 lam12n0 ) ( * Nl159CT1 lam12n1 ) ( - 1 ) ) 0 ) ( = ( * Nl159c5^01 lam12n1 ) 0 ) ( = ( + ( * ( - 1 ) lam12n0 ) ( * Nl159i6^01 lam12n1 ) ) 0 ) ) ( and ( >= lam14n1 0 ) ( > ( + ( * ( - 9 ) lam14n0 ) ( * Nl159CT1 lam14n1 ) ( - 1 ) ) 0 ) ( = ( * Nl159c5^01 lam14n1 ) 0 ) ( = ( + ( * 1 lam14n0 ) ( * Nl159i6^01 lam14n1 ) ) 0 ) ) ( and ( >= lam16n1 0 ) ( > ( + ( * ( - 8 ) lam16n0 ) ( * Nl159CT1 lam16n1 ) ( - 1 ) ) 0 ) ( = ( * Nl159c5^01 lam16n1 ) 0 ) ( = ( + ( * 1 lam16n0 ) ( * Nl159i6^01 lam16n1 ) ) 0 ) ) ( and ( >= lam18n1 0 ) ( > ( + ( * ( - 7 ) lam18n0 ) ( * Nl159CT1 lam18n1 ) ( - 1 ) ) 0 ) ( = ( * Nl159c5^01 lam18n1 ) 0 ) ( = ( + ( * 1 lam18n0 ) ( * Nl159i6^01 lam18n1 ) ) 0 ) ) ( and ( >= lam20n1 0 ) ( > ( + ( * ( - 6 ) lam20n0 ) ( * Nl159CT1 lam20n1 ) ( - 1 ) ) 0 ) ( = ( * Nl159c5^01 lam20n1 ) 0 ) ( = ( + ( * 1 lam20n0 ) ( * Nl159i6^01 lam20n1 ) ) 0 ) ) ( and ( >= lam22n1 0 ) ( > ( + ( * ( - 5 ) lam22n0 ) ( * Nl159CT1 lam22n1 ) ( - 1 ) ) 0 ) ( = ( * Nl159c5^01 lam22n1 ) 0 ) ( = ( + ( * 1 lam22n0 ) ( * Nl159i6^01 lam22n1 ) ) 0 ) ) ))
(check-sat)
(exit)
